SPARKNaCl/why3-z3/sparknacl-hashing-sha2_common.adb_99_53_range_check2_1.smt2
;; produced by z3_gnatprove.drv ;;
(set-info :smt-lib-version 2.5)
(set-info :source |VC generated by SPARK 2014|)
(set-info :category industrial)
(set-info :status unknown)
;;; generated by SMT-LIB2 driver
;;; SMT-LIB2 driver: bit-vectors, common part
;;; SMT-LIB2: integer arithmetic
;; "in_range"
(define-fun in_range ((x Int)) Bool
  (and (<= (- 2147483648) x) (<= x 2147483647)))

;; "in_range"
(define-fun in_range1 ((x Int)) Bool
  (and (<= 0 x) (<= x 2147483647)))

(declare-const input (_ BitVec 64))

(declare-const index Int)

(declare-const shift_amount Int)

(declare-const shifted_input (_ BitVec 64))

;; "in_range"
(define-fun in_range2 ((x Int)) Bool
  (and (<= 0 x) (<= x 7)))

;; "Assume"
(assert true)

;; "Assume"
(assert (in_range2 index))

;; "o"
(define-fun o () Int
  (- 7 index))

;; "infix -'result'unused"
(define-fun infix_mnqtresultqtunused () Int
  o)

;; "ada___ada___sparknacl__hashing__sha2_common__big_endian_get_byte__shift_amount__assume"
(define-fun ada___ada___sparknacl__hashing__sha2_common__big_endian_get_byte__shift_amount__assume 
  () Int
  (* o 8))

;; "infix *'result'unused"
(define-fun infix_asqtresultqtunused () Int
  ada___ada___sparknacl__hashing__sha2_common__big_endian_get_byte__shift_amount__assume)

;; "Assume"
(assert
  (= ada___ada___sparknacl__hashing__sha2_common__big_endian_get_byte__shift_amount__assume 
  shift_amount))

;; "Assume"
(assert (in_range shift_amount))

;; "o"
(define-fun o1 () Int
  shift_amount)

;; "Ensures"
(assert (in_range1 o1))

;; "range_check_'result'unused"
(define-fun range_check_qtresultqtunused () Int
  o1)

;; "o"
(define-fun o2 () (_ BitVec 64)
  ((_ int2bv 64) o1))

;; "of_int'result'unused"
(define-fun of_intqtresultqtunused () (_ BitVec 64)
  o2)

;; "o"
(define-fun o3 () (_ BitVec 64)
  (bvlshr input o2))

;; "lsr_bv'result'unused"
(define-fun lsr_bvqtresultqtunused () (_ BitVec 64)
  o3)

;; "ada___ada___sparknacl__hashing__sha2_common__big_endian_get_byte__shifted_input__assume'unused"
(define-fun ada___ada___sparknacl__hashing__sha2_common__big_endian_get_byte__shifted_input__assumeqtunused 
  () (_ BitVec 64)
  o3)

;; "Ensures"
(assert true)

;; "range_check_'result'unused"
(define-fun range_check_qtresultqtunused1 () (_ BitVec 64)
  o3)

;; "Assume"
(assert (= o3 shifted_input))

;; "Assume"
(assert true)

;; "o"
(define-fun o4 () (_ BitVec 64)
  (bvurem shifted_input #x0000000000000100))

;; "urem_'result'unused"
(define-fun urem_qtresultqtunused () (_ BitVec 64)
  o4)

;; "o"
(define-fun o5 () (_ BitVec 64)
  ((_ zero_extend 56) #xFF))

;; "toBig'result'unused"
(define-fun toBigqtresultqtunused () (_ BitVec 64)
  o5)

;; "o"
(define-fun o6 () (_ BitVec 64)
  ((_ zero_extend 56) #x00))

;; "toBig'result'unused"
(define-fun toBigqtresultqtunused1 () (_ BitVec 64)
  o6)

;; Goal "def'vc"
;; File "sparknacl-hashing-sha2_common.ads", line 15, characters 0-0
(assert
  (not (bvule o4 o5)))

(check-sat)
